NAME : portcgen-19-13
COMMENT : portcgen N=19, seed=13
TYPE : TSP
DIMENSION : 19
EDGE_WEIGHT_TYPE : EUC_2D
NODE_COORD_SECTION
1 200680 -149685
2 -186654 58723
3 237197 -189221
4 121494 240121
5 -116175 58761
6 126629 1044356
7 229603 187825
8 -238478 -148736
9 290370 -203299
10 -104053 -267907
11 59765 -71431
12 -116235 -94172
13 -132911 59388
14 -318399 -139441
15 -159102 -93616
16 66604 -126277
17 284161 273763
18 41929 -172435
19 31151 67786
